NAME : jam20
COMMENT : Generated by Jaemin Kim (20211061)
TYPE : TSP
DIMENSION : 20
EDGE_WEIGHT_TYPE : EUC_2D
NODE_COORD_SECTION
1 65 268
2 182 253
3 182 31
4 150 200
5 234 268
6 154 218
7 145 218
8 287 131
9 145 -5
10 65 78
11 117 31
12 310 190
13 117 253
14 154 -5
15 287 243
16 12 131
17 234 78
18 150 -20
19 12 243
20 -10 189
EOF
